; Copyright (c) 2026 The RIINA Authors. All rights reserved.
; Copyright (c) 2026 The RIINA Authors.
; Auto-generated from 02_FORMAL/coq/domains/LinearTypes.v (25 assertions)
; Generated by scripts/generate-full-stack.py
; Module: LinearTypes

(set-logic ALL)
(set-option :produce-models true)

; Linearity (matches Coq: Inductive Linearity)
(declare-datatypes ((Linearity 0)) (((Lin) (Aff) (Rel) (Unr))))

; LTy (matches Coq: Inductive LTy)
(declare-datatypes ((LTy 0)) (((LUnit) (LBool) (LFun) (LPair) (LBang))))

; Usage (matches Coq: Inductive Usage)
(declare-datatypes ((Usage 0)) (((Zero) (One) (Many))))

; LTerm (matches Coq: Inductive LTerm)
(declare-datatypes ((LTerm 0)) (((LVar) (LUnitVal) (LTrue) (LFalse) (LLam) (LApp) (LPairVal) (LLetPair) (LBangVal) (LLetBang) (LLet))))

; ResourceState (matches Coq: Inductive ResourceState)
(declare-datatypes ((ResourceState 0)) (((Available) (Consumed))))

; linearity_eqb (matches Coq: Definition linearity_eqb)
(define-fun linearity_eqb () Bool true)

; subqual (matches Coq: Definition subqual)
(define-fun subqual () Bool true)

; usage_add (matches Coq: Definition usage_add)
(define-fun usage_add () Usage true)

; usage_compatible (matches Coq: Definition usage_compatible)
(define-fun usage_compatible ((q Linearity) (u Usage)) Bool
  true)

; empty_ctx (matches Coq: Definition empty_ctx)
(define-fun empty_ctx () LCtx true)

; extend (matches Coq: Definition extend)
(define-fun extend ((ctx LCtx) (x Var) (ty LTy) (q Linearity)) LCtx
  true)

; ctx_split (matches Coq: Definition ctx_split)
(define-fun ctx_split () Prop true)

; linear_var_exactly_once (matches Coq: Definition linear_var_exactly_once)
(define-fun linear_var_exactly_once ((ctx LCtx) (x Var) (ty LTy)) Prop
  true)

; unrestricted_usage_valid (matches Coq: Definition unrestricted_usage_valid)
(define-fun unrestricted_usage_valid ((u Usage)) Prop
  true)

; app_consumes_arg (matches Coq: Definition app_consumes_arg)
(define-fun app_consumes_arg ((q Linearity)) Prop
  true)

; affine_subsumes_linear (matches Coq: Definition affine_subsumes_linear)
(define-fun affine_subsumes_linear () Prop true)

; relevant_subsumes_linear (matches Coq: Definition relevant_subsumes_linear)
(define-fun relevant_subsumes_linear () Prop true)

; ctx_split_valid (matches Coq: Definition ctx_split_valid)
(define-fun ctx_split_valid () LCtx true)

; substitution_preserves_structure (matches Coq: Definition substitution_preserves_structure)
(define-fun substitution_preserves_structure ((x Var)) Prop
  true)

; weakening_invalid_for_linear (matches Coq: Definition weakening_invalid_for_linear)
(define-fun weakening_invalid_for_linear () Prop true)

; weakening_violates_linear_semantics (matches Coq: Definition weakening_violates_linear_semantics)
(define-fun weakening_violates_linear_semantics () Prop true)

; contraction_invalid_for_linear (matches Coq: Definition contraction_invalid_for_linear)
(define-fun contraction_invalid_for_linear () Prop true)

; pair_consumes_both (matches Coq: Definition pair_consumes_both)
(define-fun pair_consumes_both ((q Linearity)) Prop
  true)

; let_transfers_ownership (matches Coq: Definition let_transfers_ownership)
(define-fun let_transfers_ownership ((x Var)) Prop
  true)

; use_after_consume_impossible (matches Coq: Definition use_after_consume_impossible)
(define-fun use_after_consume_impossible ((rm ResourceMap) (x Var)) Prop
  true)

; no_double_consume (matches Coq: Definition no_double_consume)
(define-fun no_double_consume () Prop true)

; linearity_eqb_eq (matches Coq: Lemma linearity_eqb_eq)
(assert (= true true)) ; linearity_eqb_eq [untranslatable]

; get_update_same (matches Coq: Lemma get_update_same)
(assert (= true true)) ; get_update_same [untranslatable]

; TYPE_002_01 (matches Coq: Theorem TYPE_002_01)
(assert (= true true)) ; TYPE_002_01 [untranslatable]

; TYPE_002_02 (matches Coq: Theorem TYPE_002_02)
(assert (= true true)) ; TYPE_002_02 [untranslatable]

; TYPE_002_03 (matches Coq: Theorem TYPE_002_03)
(assert (= true true)) ; TYPE_002_03 [untranslatable]

; TYPE_002_04 (matches Coq: Theorem TYPE_002_04)
(assert (= true true)) ; TYPE_002_04 [untranslatable]

; TYPE_002_05 (matches Coq: Theorem TYPE_002_05)
(assert (= true true)) ; TYPE_002_05 [untranslatable]

; usage_add_zero_l (matches Coq: Lemma usage_add_zero_l)
(assert (= true true)) ; usage_add_zero_l [untranslatable]

; usage_add_zero_r (matches Coq: Lemma usage_add_zero_r)
(assert (= true true)) ; usage_add_zero_r [untranslatable]

; TYPE_002_06 (matches Coq: Theorem TYPE_002_06)
(assert (= true true)) ; TYPE_002_06 [untranslatable]

; TYPE_002_07 (matches Coq: Theorem TYPE_002_07)
(assert (= true true)) ; TYPE_002_07 [untranslatable]

; linear_must_be_used (matches Coq: Lemma linear_must_be_used)
(assert (= true true)) ; linear_must_be_used [untranslatable]

; linear_zero_usage_invalid (matches Coq: Lemma linear_zero_usage_invalid)
(assert (= (usage_compatible Lin Zero) false)) ; linear_zero_usage_invalid

; linear_many_usage_invalid (matches Coq: Lemma linear_many_usage_invalid)
(assert (= (usage_compatible Lin Many) false)) ; linear_many_usage_invalid

; unused_linear_ill_formed (matches Coq: Lemma unused_linear_ill_formed)
(assert (= true true)) ; unused_linear_ill_formed [untranslatable]

; extend_preserves_lookup_none (matches Coq: Lemma extend_preserves_lookup_none)
(assert (= true true)) ; extend_preserves_lookup_none [untranslatable]

; unit_typing_preserves_ctx (matches Coq: Lemma unit_typing_preserves_ctx)
(assert (= true true)) ; unit_typing_preserves_ctx [untranslatable]

; TYPE_002_08_direct (matches Coq: Theorem TYPE_002_08_direct)
(assert (= true true)) ; TYPE_002_08_direct [untranslatable]

; weakening_consequence (matches Coq: Lemma weakening_consequence)
(assert (= true true)) ; weakening_consequence [untranslatable]

; TYPE_002_08 (matches Coq: Theorem TYPE_002_08)
(assert (= true true)) ; TYPE_002_08 [untranslatable]

; TYPE_002_09 (matches Coq: Theorem TYPE_002_09)
(assert (= true true)) ; TYPE_002_09 [untranslatable]

; TYPE_002_10 (matches Coq: Theorem TYPE_002_10)
(assert (= true true)) ; TYPE_002_10 [untranslatable]

; TYPE_002_11 (matches Coq: Theorem TYPE_002_11)
(assert (= true true)) ; TYPE_002_11 [untranslatable]

; resource_stays_consumed (matches Coq: Lemma resource_stays_consumed)
(assert (= true true)) ; resource_stays_consumed [untranslatable]

; TYPE_002_12 (matches Coq: Theorem TYPE_002_12)
(assert (= true true)) ; TYPE_002_12 [untranslatable]

; Verify all assertions are satisfiable
(check-sat)
(exit)
